13	3	6	10	2	18	4	10	6	12	2	3	12	3	13	20	12	16	10	12
11	2	6	11	13	13	9	16	1	13	5	18	10	1	13	15	18	6	15	10
17	7	15	1	10	13	18	9	4	2	20	12	18	15	18	3	20	20	5	2
19	17	14	16	9	3	16	11	8	1	12	13	12	16	13	2	17	13	12	11
7	5	2	1	19	19	6	4	1	8	2	7	14	11	17	3	14	18	1	6
2	19	11	13	17	14	6	2	9	10	5	19	9	11	4	20	6	12	1	5
17	3	8	9	15	12	1	7	15	14	1	17	12	15	17	12	4	20	3	4
3	1	7	3	18	5	16	10	19	6	10	19	19	1	7	1	2	12	9	6
5	14	14	1	14	7	19	11	12	2	12	11	8	6	5	4	3	10	8	16
